k = 110;
b = 55;
AtomicConstraints =  [|
1, 5|
	1, 8|
	1, 14|
	1, 29|
	1, 30|
	1, 38|
	1, 39|
	1, 44|
	1, 45|
	2, 5|
	2, 8|
	2, 9|
	2, 10|
	2, 11|
	2, 14|
	2, 29|
	2, 30|
	2, 31|
	2, 32|
	2, 38|
	2, 39|
	2, 40|
	2, 41|
	2, 44|
	2, 45|
	3, 5|
	3, 8|
	3, 9|
	3, 10|
	3, 11|
	3, 12|
	3, 13|
	3, 14|
	3, 29|
	3, 30|
	3, 31|
	3, 32|
	3, 33|
	3, 34|
	3, 38|
	3, 39|
	3, 40|
	3, 41|
	3, 42|
	3, 43|
	3, 44|
	3, 45|
	4, 5|
	4, 6|
	4, 7|
	4, 8|
	4, 9|
	4, 10|
	4, 11|
	4, 12|
	4, 13|
	4, 14|
	4, 29|
	4, 30|
	4, 31|
	4, 32|
	4, 33|
	4, 34|
	4, 35|
	4, 36|
	4, 38|
	4, 39|
	4, 40|
	4, 41|
	4, 42|
	4, 43|
	4, 44|
	4, 45|
	6, 11|
	6, 12|
	6, 13|
	7, 13|
	14, 5|
	14, 8|
	15, 23|
	16, 7|
	16, 12|
	16, 13|
	17, 6|
	17, 7|
	17, 10|
	17, 11|
	17, 12|
	17, 13|
	18, 6|
	18, 7|
	18, 9|
	18, 10|
	18, 11|
	18, 12|
	18, 13|
	19, 6|
	19, 7|
	19, 8|
	19, 9|
	19, 10|
	19, 11|
	19, 12|
	19, 13|
	20, 5|
	20, 6|
	20, 7|
	20, 8|
	20, 9|
	20, 10|
	20, 11|
	20, 12|
	20, 13|
	21, 7|
	21, 13|
	21, 23|
	22, 6|
	22, 7|
	22, 9|
	22, 10|
	22, 11|
	22, 12|
	22, 13|
	22, 16|
	22, 17|
	22, 18|
	59, 5|
	59, 6|
	59, 7|
	59, 8|
	59, 9|
	59, 10|
	59, 11|
	59, 12|
	59, 13|
	59, 14|
	59, 25|
	59, 26|
	59, 57|
	59, 27|
	59, 58|
	59, 56|
	59, 29|
	59, 30|
	59, 31|
	59, 32|
	59, 33|
	59, 34|
	59, 35|
	59, 36|
	59, 37|
	59, 38|
	59, 39|
	59, 40|
	59, 41|
	59, 42|
	59, 43|
	59, 44|
	59, 45|
	25, 5|
	25, 6|
	25, 7|
	25, 8|
	25, 9|
	25, 10|
	25, 11|
	25, 12|
	25, 13|
	25, 14|
	25, 26|
	25, 57|
	25, 27|
	25, 58|
	25, 56|
	25, 29|
	25, 30|
	25, 31|
	25, 32|
	25, 33|
	25, 34|
	25, 35|
	25, 36|
	25, 37|
	25, 38|
	25, 39|
	25, 40|
	25, 41|
	25, 42|
	25, 43|
	25, 44|
	25, 45|
	24, 5|
	24, 6|
	24, 7|
	24, 8|
	24, 9|
	24, 10|
	24, 11|
	24, 12|
	24, 13|
	24, 14|
	24, 59|
	24, 25|
	24, 26|
	24, 57|
	24, 27|
	24, 28|
	24, 58|
	24, 56|
	24, 29|
	24, 30|
	24, 31|
	24, 32|
	24, 33|
	24, 34|
	24, 35|
	24, 36|
	24, 37|
	24, 38|
	24, 39|
	24, 40|
	24, 41|
	24, 42|
	24, 43|
	24, 44|
	24, 45|
	26, 5|
	26, 6|
	26, 7|
	26, 8|
	26, 9|
	26, 10|
	26, 11|
	26, 12|
	26, 13|
	26, 14|
	26, 57|
	26, 27|
	26, 58|
	26, 56|
	26, 29|
	26, 30|
	26, 31|
	26, 32|
	26, 33|
	26, 34|
	26, 35|
	26, 36|
	26, 37|
	26, 38|
	26, 39|
	26, 40|
	26, 41|
	26, 42|
	26, 43|
	26, 44|
	26, 45|
	57, 5|
	57, 6|
	57, 7|
	57, 8|
	57, 9|
	57, 10|
	57, 11|
	57, 12|
	57, 13|
	57, 14|
	57, 27|
	57, 29|
	57, 30|
	57, 31|
	57, 32|
	57, 33|
	57, 34|
	57, 35|
	57, 36|
	57, 37|
	57, 38|
	57, 39|
	57, 40|
	57, 41|
	57, 42|
	57, 43|
	57, 44|
	57, 45|
	27, 5|
	27, 6|
	27, 7|
	27, 8|
	27, 9|
	27, 10|
	27, 11|
	27, 12|
	27, 13|
	27, 14|
	27, 29|
	27, 30|
	27, 31|
	27, 32|
	27, 33|
	27, 34|
	27, 35|
	27, 36|
	27, 37|
	27, 38|
	27, 39|
	27, 40|
	27, 41|
	27, 42|
	27, 43|
	27, 44|
	27, 45|
	28, 5|
	28, 6|
	28, 7|
	28, 8|
	28, 9|
	28, 10|
	28, 11|
	28, 12|
	28, 13|
	28, 14|
	28, 25|
	28, 26|
	28, 57|
	28, 27|
	28, 58|
	28, 56|
	28, 29|
	28, 30|
	28, 31|
	28, 32|
	28, 33|
	28, 34|
	28, 35|
	28, 36|
	28, 37|
	28, 38|
	28, 39|
	28, 40|
	28, 41|
	28, 42|
	28, 43|
	28, 44|
	28, 45|
	58, 5|
	58, 6|
	58, 7|
	58, 8|
	58, 9|
	58, 10|
	58, 11|
	58, 12|
	58, 13|
	58, 14|
	58, 57|
	58, 27|
	58, 56|
	58, 29|
	58, 30|
	58, 31|
	58, 32|
	58, 33|
	58, 34|
	58, 35|
	58, 36|
	58, 37|
	58, 38|
	58, 39|
	58, 40|
	58, 41|
	58, 42|
	58, 43|
	58, 44|
	58, 45|
	56, 5|
	56, 6|
	56, 7|
	56, 8|
	56, 9|
	56, 10|
	56, 11|
	56, 12|
	56, 13|
	56, 14|
	56, 57|
	56, 27|
	56, 29|
	56, 30|
	56, 31|
	56, 32|
	56, 33|
	56, 34|
	56, 35|
	56, 36|
	56, 37|
	56, 38|
	56, 39|
	56, 40|
	56, 41|
	56, 42|
	56, 43|
	56, 44|
	56, 45|
	30, 5|
	30, 8|
	30, 9|
	30, 14|
	30, 29|
	30, 38|
	30, 39|
	30, 40|
	31, 5|
	31, 8|
	31, 9|
	31, 10|
	31, 14|
	31, 38|
	31, 39|
	31, 40|
	31, 41|
	29, 5|
	29, 14|
	32, 5|
	32, 8|
	32, 9|
	32, 10|
	32, 11|
	32, 14|
	32, 39|
	32, 40|
	32, 41|
	32, 42|
	33, 5|
	33, 8|
	33, 9|
	33, 10|
	33, 11|
	33, 12|
	33, 13|
	33, 14|
	33, 40|
	33, 41|
	33, 42|
	33, 43|
	34, 5|
	34, 6|
	34, 8|
	34, 9|
	34, 10|
	34, 11|
	34, 12|
	34, 13|
	34, 14|
	34, 41|
	34, 42|
	34, 43|
	35, 5|
	35, 6|
	35, 7|
	35, 8|
	35, 9|
	35, 10|
	35, 11|
	35, 12|
	35, 13|
	35, 14|
	35, 42|
	35, 43|
	36, 5|
	36, 6|
	36, 7|
	36, 8|
	36, 9|
	36, 10|
	36, 11|
	36, 12|
	36, 13|
	36, 14|
	36, 43|
	37, 5|
	37, 6|
	37, 7|
	37, 8|
	37, 9|
	37, 10|
	37, 11|
	37, 12|
	37, 13|
	37, 14|
	38, 5|
	38, 8|
	38, 14|
	39, 5|
	39, 8|
	39, 9|
	39, 14|
	40, 5|
	40, 8|
	40, 9|
	40, 10|
	40, 14|
	41, 5|
	41, 8|
	41, 9|
	41, 10|
	41, 11|
	41, 14|
	42, 5|
	42, 8|
	42, 9|
	42, 10|
	42, 11|
	42, 12|
	42, 13|
	42, 14|
	43, 5|
	43, 6|
	43, 8|
	43, 9|
	43, 10|
	43, 11|
	43, 12|
	43, 13|
	43, 14|
	44, 5|
	44, 14|
	44, 29|
	44, 38|
	45, 5|
	45, 8|
	45, 14|
	45, 29|
	45, 38|
	45, 39|
	46, 5|
	46, 6|
	46, 7|
	46, 8|
	46, 9|
	46, 10|
	46, 11|
	46, 12|
	46, 13|
	46, 14|
	46, 15|
	46, 16|
	46, 17|
	46, 18|
	46, 19|
	46, 20|
	46, 21|
	46, 22|
	46, 23|
	46, 47|
	46, 50|
	46, 81|
	46, 78|
	46, 67|
	46, 63|
	46, 97|
	46, 89|
	46, 64|
	46, 86|
	46, 99|
	46, 70|
	46, 65|
	46, 66|
	46, 80|
	46, 82|
	46, 96|
	68, 5|
	68, 6|
	68, 7|
	68, 8|
	68, 9|
	68, 10|
	68, 11|
	68, 12|
	68, 13|
	68, 14|
	68, 15|
	68, 16|
	68, 17|
	68, 18|
	68, 19|
	68, 20|
	68, 21|
	68, 22|
	68, 23|
	47, 5|
	47, 6|
	47, 7|
	47, 8|
	47, 9|
	47, 10|
	47, 11|
	47, 12|
	47, 13|
	47, 14|
	47, 15|
	47, 16|
	47, 17|
	47, 18|
	47, 19|
	47, 20|
	47, 21|
	47, 22|
	47, 23|
	47, 50|
	47, 81|
	47, 78|
	47, 67|
	47, 63|
	47, 97|
	47, 89|
	47, 64|
	47, 86|
	47, 99|
	47, 70|
	47, 65|
	47, 66|
	47, 80|
	47, 82|
	47, 96|
	68, 46|
	68, 47|
	68, 48|
	68, 49|
	68, 60|
	68, 50|
	68, 53|
	68, 54|
	68, 55|
	68, 69|
	68, 81|
	68, 78|
	68, 67|
	68, 63|
	68, 79|
	68, 97|
	68, 89|
	68, 64|
	68, 86|
	68, 99|
	68, 70|
	68, 65|
	68, 66|
	68, 80|
	68, 82|
	68, 96|
	48, 5|
	48, 6|
	48, 7|
	48, 8|
	48, 9|
	48, 10|
	48, 11|
	48, 12|
	48, 13|
	48, 14|
	48, 15|
	48, 16|
	48, 17|
	48, 18|
	48, 19|
	48, 20|
	48, 21|
	48, 22|
	48, 23|
	48, 46|
	48, 47|
	48, 50|
	48, 54|
	48, 55|
	48, 69|
	48, 81|
	48, 78|
	48, 67|
	48, 63|
	48, 105|
	48, 79|
	48, 97|
	48, 89|
	48, 76|
	48, 64|
	48, 86|
	48, 92|
	48, 84|
	48, 62|
	48, 99|
	48, 70|
	48, 65|
	48, 66|
	48, 80|
	48, 82|
	48, 96|
	49, 5|
	49, 6|
	49, 7|
	49, 8|
	49, 9|
	49, 10|
	49, 11|
	49, 12|
	49, 13|
	49, 14|
	49, 15|
	49, 16|
	49, 17|
	49, 18|
	49, 19|
	49, 20|
	49, 21|
	49, 22|
	49, 23|
	49, 46|
	49, 47|
	49, 48|
	49, 60|
	49, 50|
	49, 53|
	49, 54|
	49, 55|
	49, 69|
	49, 81|
	49, 78|
	49, 67|
	49, 63|
	49, 97|
	49, 89|
	49, 64|
	49, 86|
	49, 99|
	49, 70|
	49, 65|
	49, 66|
	49, 80|
	49, 82|
	49, 96|
	50, 5|
	50, 6|
	50, 7|
	50, 8|
	50, 9|
	50, 10|
	50, 11|
	50, 12|
	50, 13|
	50, 14|
	50, 15|
	50, 16|
	50, 17|
	50, 18|
	50, 19|
	50, 20|
	50, 21|
	50, 22|
	50, 23|
	50, 81|
	50, 78|
	50, 67|
	50, 63|
	50, 105|
	50, 79|
	50, 97|
	50, 89|
	50, 76|
	50, 64|
	50, 86|
	50, 92|
	50, 84|
	50, 62|
	50, 99|
	50, 70|
	50, 65|
	50, 66|
	50, 80|
	50, 82|
	50, 96|
	60, 5|
	60, 6|
	60, 7|
	60, 8|
	60, 9|
	60, 10|
	60, 11|
	60, 12|
	60, 13|
	60, 14|
	60, 15|
	60, 16|
	60, 17|
	60, 18|
	60, 19|
	60, 20|
	60, 21|
	60, 22|
	60, 23|
	51, 5|
	51, 6|
	51, 7|
	51, 8|
	51, 9|
	51, 10|
	51, 11|
	51, 12|
	51, 13|
	51, 14|
	51, 15|
	51, 16|
	51, 17|
	51, 18|
	51, 19|
	51, 20|
	51, 21|
	51, 22|
	51, 23|
	51, 68|
	51, 46|
	51, 47|
	51, 48|
	51, 49|
	51, 60|
	51, 50|
	51, 52|
	51, 53|
	51, 54|
	51, 55|
	51, 69|
	51, 81|
	51, 78|
	51, 67|
	51, 63|
	51, 105|
	51, 79|
	51, 97|
	51, 89|
	51, 76|
	51, 64|
	51, 104|
	51, 86|
	51, 83|
	51, 92|
	51, 84|
	51, 74|
	51, 62|
	51, 102|
	51, 103|
	51, 87|
	51, 88|
	51, 77|
	51, 99|
	51, 61|
	51, 98|
	51, 100|
	51, 71|
	51, 73|
	51, 70|
	51, 65|
	51, 66|
	51, 80|
	51, 82|
	51, 96|
	60, 46|
	60, 47|
	60, 48|
	60, 50|
	60, 53|
	60, 54|
	60, 55|
	60, 69|
	52, 5|
	52, 6|
	52, 7|
	52, 8|
	52, 9|
	52, 10|
	52, 11|
	52, 12|
	52, 13|
	52, 14|
	52, 15|
	52, 16|
	52, 17|
	52, 18|
	52, 19|
	52, 20|
	52, 21|
	52, 22|
	52, 23|
	60, 81|
	60, 78|
	60, 67|
	60, 63|
	60, 97|
	60, 89|
	60, 64|
	60, 86|
	60, 99|
	60, 70|
	60, 65|
	60, 66|
	60, 80|
	60, 82|
	60, 96|
	52, 46|
	52, 47|
	52, 48|
	52, 49|
	52, 60|
	52, 50|
	52, 53|
	52, 54|
	52, 55|
	52, 69|
	52, 81|
	52, 78|
	52, 67|
	52, 63|
	52, 105|
	52, 79|
	52, 97|
	52, 89|
	52, 76|
	52, 64|
	52, 104|
	52, 86|
	52, 83|
	52, 92|
	52, 84|
	52, 74|
	52, 62|
	52, 102|
	52, 103|
	52, 87|
	52, 88|
	52, 77|
	52, 99|
	52, 61|
	52, 98|
	52, 100|
	52, 71|
	52, 73|
	52, 70|
	52, 65|
	52, 66|
	52, 80|
	52, 82|
	52, 96|
	53, 5|
	53, 6|
	53, 7|
	53, 8|
	53, 9|
	53, 10|
	53, 11|
	53, 12|
	53, 13|
	53, 14|
	53, 15|
	53, 16|
	53, 17|
	53, 18|
	53, 19|
	53, 20|
	53, 21|
	53, 22|
	53, 23|
	53, 46|
	53, 47|
	53, 50|
	53, 54|
	53, 55|
	53, 69|
	53, 81|
	53, 78|
	53, 67|
	53, 63|
	53, 97|
	53, 89|
	53, 64|
	53, 86|
	53, 99|
	53, 70|
	53, 65|
	53, 66|
	53, 80|
	53, 82|
	53, 96|
	54, 5|
	54, 6|
	54, 7|
	54, 8|
	54, 9|
	54, 10|
	54, 11|
	54, 12|
	54, 13|
	54, 14|
	54, 15|
	54, 16|
	54, 17|
	54, 18|
	54, 19|
	54, 20|
	54, 21|
	54, 22|
	54, 23|
	54, 46|
	54, 47|
	54, 50|
	54, 55|
	54, 69|
	54, 81|
	54, 78|
	54, 67|
	54, 63|
	54, 97|
	54, 89|
	54, 64|
	54, 86|
	54, 99|
	54, 70|
	54, 65|
	54, 66|
	54, 80|
	54, 82|
	54, 96|
	55, 5|
	55, 6|
	55, 7|
	55, 8|
	55, 9|
	55, 10|
	55, 11|
	55, 12|
	55, 13|
	55, 14|
	55, 15|
	55, 16|
	55, 17|
	55, 18|
	55, 19|
	55, 20|
	55, 21|
	55, 22|
	55, 23|
	55, 46|
	55, 47|
	55, 50|
	55, 69|
	55, 81|
	55, 78|
	55, 67|
	55, 63|
	55, 97|
	55, 89|
	55, 64|
	55, 86|
	55, 99|
	55, 70|
	55, 65|
	55, 66|
	55, 80|
	55, 82|
	55, 96|
	69, 5|
	69, 6|
	69, 7|
	69, 8|
	69, 9|
	69, 10|
	69, 11|
	69, 12|
	69, 13|
	69, 14|
	69, 15|
	69, 16|
	69, 17|
	69, 18|
	69, 19|
	69, 20|
	69, 21|
	69, 22|
	69, 23|
	69, 46|
	69, 47|
	69, 50|
	69, 81|
	69, 78|
	69, 67|
	69, 63|
	69, 97|
	69, 89|
	69, 64|
	69, 86|
	69, 99|
	69, 70|
	69, 65|
	69, 66|
	69, 80|
	69, 82|
	69, 96|
	78, 67|
	78, 63|
	78, 76|
	78, 64|
	78, 65|
	78, 66|
	67, 63|
	67, 64|
	67, 66|
	105, 78|
	105, 67|
	105, 63|
	105, 79|
	105, 97|
	105, 89|
	105, 76|
	105, 64|
	105, 83|
	105, 92|
	105, 84|
	105, 74|
	105, 62|
	105, 99|
	105, 70|
	105, 65|
	105, 66|
	105, 82|
	105, 96|
	79, 78|
	79, 67|
	79, 63|
	79, 97|
	79, 89|
	79, 76|
	79, 64|
	79, 92|
	79, 84|
	79, 74|
	79, 62|
	79, 70|
	79, 65|
	79, 66|
	79, 96|
	81, 78|
	81, 67|
	81, 63|
	81, 86|
	81, 99|
	81, 70|
	81, 65|
	81, 66|
	81, 82|
	81, 96|
	97, 78|
	97, 67|
	97, 63|
	97, 89|
	97, 76|
	97, 64|
	97, 84|
	97, 74|
	97, 62|
	97, 65|
	97, 66|
	89, 67|
	89, 63|
	89, 76|
	89, 64|
	89, 74|
	89, 62|
	89, 66|
	76, 63|
	76, 64|
	76, 62|
	104, 78|
	104, 67|
	104, 63|
	104, 79|
	104, 97|
	104, 89|
	104, 76|
	104, 64|
	104, 83|
	104, 92|
	104, 84|
	104, 74|
	104, 62|
	104, 70|
	104, 65|
	104, 66|
	104, 96|
	83, 78|
	83, 67|
	83, 63|
	83, 97|
	83, 89|
	83, 76|
	83, 64|
	83, 92|
	83, 84|
	83, 74|
	83, 62|
	83, 65|
	83, 66|
	92, 67|
	92, 63|
	92, 89|
	92, 76|
	92, 64|
	92, 84|
	92, 74|
	92, 62|
	92, 66|
	84, 63|
	84, 76|
	84, 64|
	84, 74|
	84, 62|
	74, 64|
	74, 62|
	86, 78|
	86, 67|
	86, 63|
	86, 99|
	86, 70|
	86, 65|
	86, 66|
	86, 96|
	102, 78|
	102, 67|
	102, 63|
	102, 97|
	102, 89|
	102, 76|
	102, 64|
	102, 92|
	102, 84|
	102, 74|
	102, 62|
	102, 103|
	102, 87|
	102, 88|
	102, 77|
	102, 61|
	102, 110|
	102, 98|
	102, 100|
	102, 71|
	102, 73|
	102, 65|
	102, 66|
	103, 67|
	103, 63|
	103, 89|
	103, 76|
	103, 64|
	103, 84|
	103, 74|
	103, 62|
	103, 87|
	103, 88|
	103, 77|
	103, 61|
	103, 98|
	103, 100|
	103, 71|
	103, 73|
	103, 66|
	87, 63|
	87, 76|
	87, 64|
	87, 74|
	87, 62|
	87, 88|
	87, 77|
	87, 61|
	87, 100|
	87, 71|
	87, 73|
	88, 64|
	88, 62|
	88, 77|
	88, 61|
	88, 71|
	88, 73|
	77, 61|
	77, 73|
	107, 67|
	107, 63|
	107, 89|
	107, 76|
	107, 64|
	107, 92|
	107, 84|
	107, 74|
	107, 62|
	107, 103|
	107, 87|
	107, 88|
	107, 77|
	107, 61|
	107, 110|
	107, 98|
	107, 100|
	107, 71|
	107, 73|
	107, 108|
	107, 93|
	107, 90|
	107, 95|
	107, 75|
	107, 65|
	107, 66|
	110, 63|
	110, 76|
	110, 64|
	110, 84|
	110, 74|
	110, 62|
	110, 87|
	110, 88|
	110, 77|
	110, 61|
	110, 98|
	110, 100|
	110, 71|
	110, 73|
	110, 93|
	110, 90|
	110, 95|
	110, 75|
	110, 66|
	98, 64|
	98, 74|
	98, 62|
	98, 88|
	98, 77|
	98, 61|
	98, 100|
	98, 71|
	98, 73|
	98, 90|
	98, 95|
	98, 75|
	100, 62|
	100, 77|
	100, 61|
	100, 71|
	100, 73|
	100, 95|
	100, 75|
	99, 78|
	99, 67|
	99, 63|
	99, 70|
	99, 65|
	99, 66|
	71, 61|
	71, 73|
	71, 75|
	109, 63|
	109, 76|
	109, 64|
	109, 84|
	109, 74|
	109, 62|
	109, 87|
	109, 88|
	109, 77|
	109, 61|
	109, 110|
	109, 98|
	109, 100|
	109, 71|
	109, 73|
	109, 108|
	109, 93|
	109, 90|
	109, 95|
	109, 75|
	109, 101|
	109, 85|
	109, 91|
	109, 94|
	109, 72|
	109, 66|
	108, 64|
	108, 74|
	108, 62|
	108, 88|
	108, 77|
	108, 61|
	108, 98|
	108, 100|
	108, 71|
	108, 73|
	108, 93|
	108, 90|
	108, 95|
	108, 75|
	108, 85|
	108, 91|
	108, 94|
	108, 72|
	93, 62|
	93, 77|
	93, 61|
	93, 100|
	93, 71|
	93, 73|
	93, 90|
	93, 95|
	93, 75|
	93, 91|
	93, 94|
	93, 72|
	90, 61|
	90, 71|
	90, 73|
	90, 95|
	90, 75|
	90, 94|
	90, 72|
	95, 73|
	95, 75|
	95, 72|
	106, 63|
	106, 76|
	106, 64|
	106, 74|
	106, 62|
	106, 88|
	106, 77|
	106, 61|
	106, 98|
	106, 100|
	106, 71|
	106, 73|
	106, 108|
	106, 93|
	106, 90|
	106, 95|
	106, 75|
	106, 101|
	106, 85|
	106, 91|
	106, 94|
	106, 72|
	101, 64|
	101, 62|
	101, 77|
	101, 61|
	101, 100|
	101, 71|
	101, 73|
	101, 93|
	101, 90|
	101, 95|
	101, 75|
	101, 85|
	101, 91|
	101, 94|
	101, 72|
	70, 67|
	70, 63|
	70, 65|
	70, 66|
	85, 61|
	85, 71|
	85, 73|
	85, 90|
	85, 95|
	85, 75|
	85, 91|
	85, 94|
	85, 72|
	91, 73|
	91, 95|
	91, 75|
	91, 94|
	91, 72|
	94, 75|
	94, 72|
	65, 63|
	65, 66|
	80, 78|
	80, 67|
	80, 63|
	80, 79|
	80, 97|
	80, 89|
	80, 76|
	80, 64|
	80, 86|
	80, 99|
	80, 70|
	80, 65|
	80, 66|
	80, 82|
	80, 96|
	82, 78|
	82, 67|
	82, 63|
	82, 97|
	82, 89|
	82, 76|
	82, 64|
	82, 99|
	82, 70|
	82, 65|
	82, 66|
	82, 96|
	96, 78|
	96, 67|
	96, 63|
	96, 89|
	96, 76|
	96, 64|
	96, 70|
	96, 65|
	96, 66|];
DisjunctiveConstraints =  [|1, 5, 1, 60|
	1, 11, 66, 1|
	1, 31, 86, 1|
	1, 38, 1, 93|
	1, 40, 95, 1|
	1, 45, 1, 100|
	2, 3, 2, 1|
	2, 6, 61, 2|
	2, 9, 2, 64|
	2, 13, 68, 2|
	2, 31, 2, 86|
	2, 33, 88, 2|
	2, 40, 2, 95|
	2, 42, 97, 2|
	3, 4, 3, 2|
	3, 7, 62, 3|
	3, 11, 3, 66|
	3, 33, 3, 88|
	3, 35, 90, 3|
	3, 42, 3, 97|
	4, 6, 4, 61|
	4, 35, 4, 90|
	4, 37, 92, 4|
	8, 9, 8, 5|
	9, 10, 9, 8|
	10, 11, 10, 9|
	11, 12, 11, 10|
	12, 13, 12, 11|
	17, 16, 17, 18|
	18, 17, 18, 19|
	19, 18, 19, 20|
	59, 20, 75, 59|
	25, 20, 75, 25|
	26, 20, 75, 26|
	57, 20, 75, 57|
	27, 20, 75, 27|
	30, 8, 30, 63|
	30, 10, 65, 30|
	30, 31, 30, 45|
	31, 9, 31, 64|
	31, 11, 66, 31|
	31, 32, 31, 30|
	29, 8, 63, 29|
	32, 10, 32, 65|
	32, 12, 67, 32|
	32, 33, 32, 31|
	33, 6, 61, 33|
	33, 11, 33, 66|
	33, 13, 68, 33|
	33, 34, 33, 32|
	34, 12, 34, 67|
	34, 35, 34, 33|
	35, 6, 35, 61|
	35, 7, 62, 35|
	35, 13, 35, 68|
	35, 36, 35, 34|
	36, 37, 36, 35|
	37, 7, 37, 62|
	38, 5, 38, 60|
	38, 9, 64, 38|
	38, 14, 38, 69|
	38, 39, 38, 29|
	39, 8, 39, 63|
	39, 10, 65, 39|
	39, 40, 39, 38|
	40, 9, 40, 64|
	40, 11, 66, 40|
	40, 41, 40, 39|
	41, 10, 41, 65|
	41, 12, 67, 41|
	41, 42, 41, 40|
	42, 6, 61, 42|
	42, 11, 42, 66|
	42, 13, 68, 42|
	42, 43, 42, 41|
	43, 12, 43, 67|
	44, 8, 63, 44|
	45, 5, 45, 60|
	45, 9, 64, 45|
	45, 14, 45, 69|
	45, 30, 45, 44|
	46, 8, 46, 63|
	46, 12, 46, 67|
	46, 41, 46, 96|
	46, 50, 105, 46|
	46, 81, 46, 26|
	46, 104, 49, 46|
	46, 83, 28, 46|
	46, 92, 37, 46|
	46, 84, 29, 46|
	46, 74, 19, 46|
	46, 62, 7, 46|
	46, 70, 46, 15|
	68, 12, 68, 67|
	68, 14, 68, 69|
	68, 23, 68, 78|
	68, 41, 68, 96|
	47, 8, 47, 63|
	47, 12, 47, 67|
	47, 41, 47, 96|
	47, 105, 50, 47|
	47, 81, 47, 26|
	47, 104, 49, 47|
	47, 83, 28, 47|
	47, 92, 37, 47|
	47, 84, 29, 47|
	47, 74, 19, 47|
	47, 62, 7, 47|
	47, 70, 47, 15|
	68, 46, 68, 101|
	68, 47, 68, 102|
	68, 48, 103, 68|
	68, 53, 68, 108|
	68, 54, 68, 109|
	68, 55, 68, 110|
	68, 80, 68, 25|
	68, 82, 68, 27|
	48, 9, 48, 64|
	48, 23, 48, 78|
	48, 34, 48, 89|
	48, 42, 48, 97|
	48, 105, 48, 50|
	48, 87, 32, 48|
	48, 88, 33, 48|
	48, 77, 22, 48|
	48, 61, 6, 48|
	49, 8, 49, 63|
	49, 12, 49, 67|
	49, 41, 49, 96|
	49, 46, 49, 101|
	49, 47, 49, 102|
	49, 50, 105, 49|
	49, 81, 49, 26|
	49, 70, 49, 15|
	49, 80, 49, 25|
	49, 82, 49, 27|
	50, 9, 50, 64|
	50, 23, 50, 78|
	50, 104, 49, 50|
	50, 83, 28, 50|
	50, 92, 37, 50|
	50, 80, 50, 25|
	50, 82, 50, 27|
	60, 8, 60, 63|
	60, 12, 60, 67|
	60, 41, 60, 96|
	51, 22, 51, 77|
	51, 32, 51, 87|
	51, 33, 51, 88|
	51, 43, 51, 98|
	51, 45, 51, 100|
	60, 46, 60, 101|
	60, 47, 60, 102|
	60, 50, 105, 60|
	52, 22, 52, 77|
	52, 32, 52, 87|
	52, 33, 52, 88|
	52, 45, 52, 100|
	60, 81, 60, 26|
	60, 70, 60, 15|
	60, 80, 60, 25|
	60, 82, 60, 27|
	52, 106, 51, 52|
	52, 101, 46, 52|
	53, 8, 53, 63|
	53, 12, 53, 67|
	53, 41, 53, 96|
	53, 46, 53, 101|
	53, 47, 53, 102|
	53, 50, 105, 53|
	53, 81, 53, 26|
	53, 104, 49, 53|
	53, 70, 53, 15|
	53, 82, 53, 27|
	54, 8, 54, 63|
	54, 12, 54, 67|
	54, 41, 54, 96|
	54, 47, 54, 102|
	54, 50, 105, 54|
	54, 81, 54, 26|
	54, 104, 49, 54|
	54, 83, 28, 54|
	54, 70, 54, 15|
	55, 8, 55, 63|
	55, 12, 55, 67|
	55, 41, 55, 96|
	55, 47, 55, 102|
	55, 50, 105, 55|
	55, 81, 55, 26|
	55, 104, 49, 55|
	55, 83, 28, 55|
	55, 92, 37, 55|
	55, 84, 29, 55|
	55, 70, 55, 15|
	69, 8, 69, 63|
	69, 12, 69, 67|
	69, 41, 69, 96|
	69, 47, 69, 102|
	69, 50, 105, 69|
	69, 81, 69, 26|
	69, 104, 49, 69|
	69, 83, 28, 69|
	69, 92, 37, 69|
	69, 84, 29, 69|
	69, 74, 19, 69|
	69, 62, 7, 69|
	69, 70, 69, 15|
	78, 89, 78, 70|
	67, 76, 67, 65|
	63, 64, 63, 66|
	105, 104, 105, 80|
	79, 83, 79, 82|
	97, 92, 97, 96|
	89, 84, 89, 78|
	76, 74, 76, 67|
	64, 62, 64, 63|
	104, 102, 104, 105|
	83, 103, 83, 79|
	92, 87, 92, 97|
	84, 88, 84, 89|
	74, 77, 74, 76|
	62, 61, 62, 64|
	102, 107, 102, 104|
	103, 110, 103, 83|
	87, 98, 87, 92|
	88, 100, 88, 84|
	77, 71, 77, 74|
	61, 73, 61, 62|
	107, 109, 107, 102|
	110, 108, 110, 103|
	98, 93, 98, 87|
	100, 90, 100, 88|
	71, 95, 71, 77|
	73, 75, 73, 61|
	109, 106, 109, 107|
	108, 101, 108, 110|
	93, 85, 93, 98|
	90, 91, 90, 100|
	95, 94, 95, 71|
	75, 72, 75, 73|
	80, 105, 80, 81|
	82, 79, 82, 86|
	96, 97, 96, 99|];
SoftAtomicConstraints =  [|
2, 1|
3, 2|
4, 3|
8, 5|
7, 6|
9, 8|
10, 9|
11, 10|
12, 11|
13, 12|
6, 14|
23, 16|
16, 17|
17, 18|
18, 19|
19, 20|
15, 21|
21, 22|
59, 28|
38, 29|
31, 30|
32, 31|
33, 32|
34, 33|
35, 34|
36, 35|
37, 36|
39, 38|
40, 39|
41, 40|
42, 41|
43, 42|
45, 44|
30, 45|
48, 53|
73, 61|
61, 62|
64, 63|
62, 64|
67, 65|
63, 66|
76, 67|
78, 70|
95, 71|
75, 73|
77, 74|
72, 75|
74, 76|
71, 77|
89, 78|
83, 79|
105, 80|
80, 81|
79, 82|
103, 83|
88, 84|
82, 86|
98, 87|
100, 88|
84, 89|
91, 90|
87, 92|
85, 93|
94, 95|
97, 96|
92, 97|
93, 98|
96, 99|
90, 100|
107, 102|
110, 103|
102, 104|
104, 105|
109, 107|
101, 108|
106, 109|
108, 110|];
DirectSuccessors =  [];
